979233
953357
953357
953357
941944
941944
931833
931833
931833
931833
931833
929549
929549
929549
922885
911581
911581
909186
873453
873453
873453
873453
873453
851316
851316
851316
851316
842486
831330
830506
830506
830506
823843
823843
823843
823843
814956
814956
814956
811978
806850
789272
789272
783901
783901
783901
783901
783901
783901
783768
781217
781217
773326
773326
767926
767926
755732
738795
713553
713553
713553
713553
713553
713553
712503
711469
711380
710322
709117
709117
709117
709117
697257
697257
697257
697257
696010
689061
689061
689061
688808
679517
679517
679517
679517
679517
679517
679517
679517
679170
679170
679170
674863
665810
665810
661253
661253
661253
659456
659456
